NAME : PR143A
TYPE : PDTSP
DIMENSION : 143
EDGE_WEIGHT_TYPE : EUC_2D
NODE_COORD_SECTION
1 4350 4425
2 4500 4425
3 4300 4725
4 4300 4825
5 4300 4950
6 4300 5050
7 4350 8875
8 4500 8875
9 4300 9175
10 4300 9275
11 4300 9400
12 4300 9500
13 4950 10600
14 5150 10600
15 5525 9525
16 5525 9425
17 5525 9225
18 5525 9125
19 4950 8875
20 5250 8875
21 5550 8875
22 4950 6150
23 5150 6150
24 5525 5075
25 5525 4975
26 5525 4775
27 5525 4675
28 4950 4425
29 5250 4425
30 5550 4425
31 5875 2325
32 5875 2475
33 5875 2625
34 5875 2775
35 5675 4825
36 5675 4925
37 5875 6775
38 5875 6925
39 5875 7075
40 5875 7225
41 5675 9275
42 5675 9375
43 8125 10150
44 8225 10150
45 8325 10150
46 8125 5700
47 8225 5700
48 8325 5700
49 8675 3150
50 8675 3250
51 8675 3350
52 8675 3450
53 8675 3550
54 8675 3750
55 8675 3850
56 8675 3950
57 8675 4050
58 8425 5700
59 8525 5700
60 8675 7600
61 8675 7700
62 8675 7800
63 8675 7900
64 8675 8000
65 8675 8100
66 8675 8200
67 8675 8300
68 8675 8400
69 8675 8500
70 8425 10150
71 8525 10150
72 10850 9500
73 10850 9400
74 10850 9275
75 10850 9175
76 10900 8875
77 11050 8875
78 10850 5050
79 10850 4950
80 10850 4825
81 1085 4725
82 10900 4425
83 11050 4425
84 11500 4425
85 11800 4425
86 11500 6150
87 11700 6150
88 11500 8875
89 11800 8875
90 11500 10600
91 11700 10600
92 12075 9525
93 12075 9425
94 12225 9375
95 12225 9275
96 12075 9225
97 12075 9125
98 12100 8875
99 12425 7225
100 12425 7075
101 12425 6925
102 12425 6775
103 12075 5075
104 12075 4975
105 12225 4925
106 12225 4825
107 12075 4775
108 12075 4675
109 12100 4425
110 12425 2775
111 12425 2625
112 12425 2475
113 12425 2325
114 14675 5700
115 14675 10150
116 14775 10150
117 14875 10150
118 14975 10150
119 15075 10150
120 15225 8500
121 15225 8400
122 15225 8300
123 15225 8200
124 15225 8100
125 15225 8000
126 15225 7900
127 15225 7800
128 15225 7700
129 15225 7600
130 14775 5700
131 14875 5700
132 14975 5700
133 15075 5700
134 15225 4050
135 15225 3950
136 15225 3850
137 15225 3750
138 15225 3650
139 15225 3550
140 15225 3450
141 15225 3350
142 15225 3250
143 15225 3150
PICKUP_AND_DELIVERY_SECTION
1 0 0 0 0 0 0
2 0 0 0 0 29 0
3 0 0 0 0 0 81
4 0 0 0 0 0 5
5 0 0 0 0 4 0
6 0 0 0 0 0 25
7 0 0 0 0 0 19
8 0 0 0 0 24 0
9 0 0 0 0 0 21
10 0 0 0 0 41 0
11 0 0 0 0 120 0
12 0 0 0 0 0 20
13 0 0 0 0 14 0
14 0 0 0 0 0 13
15 0 0 0 0 0 16
16 0 0 0 0 15 0
17 0 0 0 0 18 0
18 0 0 0 0 0 17
19 0 0 0 0 7 0
20 0 0 0 0 12 0
21 0 0 0 0 9 0
22 0 0 0 0 0 37
23 0 0 0 0 39 0
24 0 0 0 0 0 8
25 0 0 0 0 6 0
26 0 0 0 0 0 28
27 0 0 0 0 30 0
28 0 0 0 0 26 0
29 0 0 0 0 0 2
30 0 0 0 0 0 27
31 0 0 0 0 0 32
32 0 0 0 0 31 0
33 0 0 0 0 0 34
34 0 0 0 0 33 0
35 0 0 0 0 36 0
36 0 0 0 0 0 35
37 0 0 0 0 22 0
38 0 0 0 0 40 0
39 0 0 0 0 0 23
40 0 0 0 0 0 38
41 0 0 0 0 0 10
42 0 0 0 0 131 0
43 0 0 0 0 0 70
44 0 0 0 0 71 0
45 0 0 0 0 75 0
46 0 0 0 0 0 62
47 0 0 0 0 54 0
48 0 0 0 0 56 0
49 0 0 0 0 53 0
50 0 0 0 0 122 0
51 0 0 0 0 55 0
52 0 0 0 0 97 0
53 0 0 0 0 0 49
54 0 0 0 0 0 47
55 0 0 0 0 0 51
56 0 0 0 0 0 48
57 0 0 0 0 0 83
58 0 0 0 0 78 0
59 0 0 0 0 0 60
60 0 0 0 0 59 0
61 0 0 0 0 0 69
62 0 0 0 0 46 0
63 0 0 0 0 67 0
64 0 0 0 0 66 0
65 0 0 0 0 0 68
66 0 0 0 0 0 64
67 0 0 0 0 0 63
68 0 0 0 0 65 0
69 0 0 0 0 61 0
70 0 0 0 0 43 0
71 0 0 0 0 0 44
72 0 0 0 0 0 93
73 0 0 0 0 0 90
74 0 0 0 0 0 76
75 0 0 0 0 0 45
76 0 0 0 0 74 0
77 0 0 0 0 0 95
78 0 0 0 0 0 58
79 0 0 0 0 0 80
80 0 0 0 0 79 0
81 0 0 0 0 3 0
82 0 0 0 0 0 104
83 0 0 0 0 57 0
84 0 0 0 0 111 0
85 0 0 0 0 106 0
86 0 0 0 0 0 87
87 0 0 0 0 86 0
88 0 0 0 0 0 102
89 0 0 0 0 98 0
90 0 0 0 0 73 0
91 0 0 0 0 0 116
92 0 0 0 0 0 99
93 0 0 0 0 72 0
94 0 0 0 0 96 0
95 0 0 0 0 77 0
96 0 0 0 0 0 94
97 0 0 0 0 0 52
98 0 0 0 0 0 89
99 0 0 0 0 92 0
100 0 0 0 0 101 0
101 0 0 0 0 0 100
102 0 0 0 0 88 0
103 0 0 0 0 107 0
104 0 0 0 0 82 0
105 0 0 0 0 0 108
106 0 0 0 0 0 85
107 0 0 0 0 0 103
108 0 0 0 0 105 0
109 0 0 0 0 0 110
110 0 0 0 0 109 0
111 0 0 0 0 0 84
112 0 0 0 0 0 135
113 0 0 0 0 0 142
114 0 0 0 0 130 0
115 0 0 0 0 117 0
116 0 0 0 0 91 0
117 0 0 0 0 0 115
118 0 0 0 0 121 0
119 0 0 0 0 0 123
120 0 0 0 0 0 11
121 0 0 0 0 0 118
122 0 0 0 0 0 50
123 0 0 0 0 119 0
124 0 0 0 0 126 0
125 0 0 0 0 127 0
126 0 0 0 0 0 124
127 0 0 0 0 0 125
128 0 0 0 0 0 129
129 0 0 0 0 128 0
130 0 0 0 0 0 114
131 0 0 0 0 0 42
132 0 0 0 0 0 133
133 0 0 0 0 132 0
134 0 0 0 0 137 0
135 0 0 0 0 112 0
136 0 0 0 0 0 143
137 0 0 0 0 0 134
138 0 0 0 0 140 0
139 0 0 0 0 0 141
140 0 0 0 0 0 138
141 0 0 0 0 139 0
142 0 0 0 0 113 0
143 0 0 0 0 136 0
DEPOT_SECTION
1 
-1
EOF
